language Essence 1.3

letting bot_end be [137, 145, 233, 90, 357, 389, 232, 155, 99, 370, 219, 334, 39, 380, 127, 7, 1, 148; int(1..18)]
letting bot_start be [59, 296, 10, 155, 79, 234, 199, 46, 278, 102, 7, 157, 25, 45, 212, 229, 284, 167; int(1..18)]
letting bots be 18
letting buffer_col be 2
letting buffer_row be 2
letting corridor_size be 1
letting n_shelves_col be 3
letting n_shelves_row be 13
letting shelf_col_size be 2
letting shelf_row_size be 1
